p edge 191 2360
e 1 2
e 1 42
e 1 44
e 1 46
e 1 94
e 1 163
e 1 190
e 2 3
e 2 5
e 2 7
e 2 10
e 2 12
e 2 14
e 2 16
e 2 19
e 2 21
e 2 24
e 2 26
e 2 31
e 2 34
e 2 36
e 2 39
e 2 47
e 2 49
e 2 51
e 2 53
e 2 56
e 2 60
e 2 62
e 2 66
e 2 69
e 2 71
e 2 74
e 2 78
e 2 80
e 2 82
e 2 85
e 2 89
e 2 95
e 2 97
e 2 99
e 2 101
e 2 104
e 2 108
e 2 110
e 2 114
e 2 117
e 2 119
e 2 122
e 2 126
e 2 129
e 2 131
e 2 134
e 2 136
e 2 139
e 2 141
e 2 143
e 2 148
e 2 150
e 2 154
e 2 156
e 2 159
e 2 164
e 2 166
e 2 168
e 2 170
e 2 175
e 2 179
e 2 181
e 2 185
e 3 4
e 3 44
e 3 46
e 3 94
e 3 163
e 3 190
e 4 5
e 4 8
e 4 10
e 4 14
e 4 17
e 4 19
e 4 22
e 4 24
e 4 27
e 4 31
e 4 33
e 4 36
e 4 38
e 4 42
e 4 45
e 4 49
e 4 51
e 4 54
e 4 56
e 4 59
e 4 63
e 4 66
e 4 68
e 4 71
e 4 73
e 4 76
e 4 78
e 4 82
e 4 84
e 4 89
e 4 91
e 4 97
e 4 99
e 4 102
e 4 104
e 4 107
e 4 111
e 4 114
e 4 116
e 4 119
e 4 121
e 4 124
e 4 126
e 4 131
e 4 133
e 4 136
e 4 138
e 4 141
e 4 144
e 4 146
e 4 148
e 4 153
e 4 156
e 4 159
e 4 161
e 4 166
e 4 170
e 4 172
e 4 176
e 4 181
e 4 183
e 4 185
e 4 187
e 5 6
e 5 18
e 5 46
e 5 94
e 5 163
e 5 190
e 6 7
e 6 11
e 6 14
e 6 16
e 6 19
e 6 21
e 6 23
e 6 34
e 6 36
e 6 40
e 6 44
e 6 51
e 6 53
e 6 57
e 6 62
e 6 66
e 6 69
e 6 71
e 6 75
e 6 80
e 6 82
e 6 90
e 6 92
e 6 99
e 6 101
e 6 105
e 6 110
e 6 114
e 6 117
e 6 119
e 6 123
e 6 134
e 6 136
e 6 139
e 6 141
e 6 147
e 6 154
e 6 156
e 6 158
e 6 162
e 6 164
e 6 166
e 6 169
e 6 173
e 6 175
e 6 178
e 6 185
e 7 8
e 7 42
e 7 46
e 7 94
e 7 163
e 7 190
e 8 9
e 8 11
e 8 16
e 8 21
e 8 23
e 8 32
e 8 34
e 8 37
e 8 40
e 8 44
e 8 50
e 8 53
e 8 55
e 8 57
e 8 62
e 8 69
e 8 75
e 8 77
e 8 80
e 8 88
e 8 90
e 8 92
e 8 98
e 8 101
e 8 103
e 8 105
e 8 110
e 8 117
e 8 123
e 8 125
e 8 132
e 8 134
e 8 139
e 8 145
e 8 147
e 8 154
e 8 158
e 8 160
e 8 162
e 8 164
e 8 169
e 8 171
e 8 173
e 8 175
e 8 178
e 8 184
e 9 10
e 9 14
e 9 42
e 9 46
e 9 94
e 9 163
e 9 190
e 10 11
e 10 13
e 10 23
e 10 25
e 10 30
e 10 32
e 10 37
e 10 40
e 10 44
e 10 48
e 10 50
e 10 55
e 10 57
e 10 61
e 10 75
e 10 77
e 10 79
e 10 86
e 10 88
e 10 90
e 10 92
e 10 96
e 10 98
e 10 103
e 10 105
e 10 109
e 10 123
e 10 125
e 10 127
e 10 130
e 10 132
e 10 142
e 10 145
e 10 147
e 10 149
e 10 158
e 10 160
e 10 162
e 10 167
e 10 169
e 10 171
e 10 173
e 10 178
e 10 180
e 10 184
e 11 12
e 11 18
e 11 46
e 11 94
e 11 163
e 11 190
e 12 13
e 12 17
e 12 23
e 12 25
e 12 27
e 12 30
e 12 38
e 12 40
e 12 42
e 12 44
e 12 48
e 12 57
e 12 59
e 12 61
e 12 68
e 12 73
e 12 75
e 12 79
e 12 84
e 12 86
e 12 90
e 12 92
e 12 96
e 12 105
e 12 107
e 12 109
e 12 116
e 12 121
e 12 123
e 12 127
e 12 130
e 12 138
e 12 142
e 12 144
e 12 147
e 12 149
e 12 153
e 12 158
e 12 162
e 12 167
e 12 169
e 12 173
e 12 176
e 12 178
e 12 180
e 12 187
e 13 14
e 13 16
e 13 46
e 13 94
e 13 163
e 13 190
e 14 15
e 14 18
e 14 20
e 14 25
e 14 28
e 14 30
e 14 32
e 14 35
e 14 37
e 14 41
e 14 43
e 14 48
e 14 50
e 14 52
e 14 55
e 14 58
e 14 61
e 14 65
e 14 67
e 14 70
e 14 72
e 14 77
e 14 79
e 14 81
e 14 83
e 14 86
e 14 88
e 14 96
e 14 98
e 14 100
e 14 103
e 14 106
e 14 109
e 14 113
e 14 115
e 14 118
e 14 120
e 14 125
e 14 127
e 14 130
e 14 132
e 14 135
e 14 137
e 14 140
e 14 142
e 14 145
e 14 149
e 14 152
e 14 155
e 14 157
e 14 160
e 14 165
e 14 167
e 14 171
e 14 174
e 14 177
e 14 180
e 14 184
e 14 186
e 15 16
e 15 44
e 15 46
e 15 94
e 15 163
e 15 190
e 16 17
e 16 20
e 16 22
e 16 25
e 16 27
e 16 30
e 16 33
e 16 35
e 16 38
e 16 42
e 16 45
e 16 48
e 16 52
e 16 54
e 16 59
e 16 61
e 16 63
e 16 65
e 16 68
e 16 70
e 16 73
e 16 76
e 16 79
e 16 81
e 16 84
e 16 86
e 16 91
e 16 96
e 16 100
e 16 102
e 16 107
e 16 109
e 16 111
e 16 113
e 16 116
e 16 118
e 16 121
e 16 124
e 16 127
e 16 130
e 16 133
e 16 135
e 16 138
e 16 140
e 16 142
e 16 144
e 16 146
e 16 149
e 16 153
e 16 155
e 16 161
e 16 165
e 16 167
e 16 172
e 16 174
e 16 176
e 16 180
e 16 183
e 16 187
e 17 18
e 17 46
e 17 94
e 17 163
e 17 190
e 18 19
e 18 23
e 18 27
e 18 36
e 18 38
e 18 40
e 18 42
e 18 44
e 18 51
e 18 57
e 18 59
e 18 66
e 18 68
e 18 71
e 18 73
e 18 75
e 18 82
e 18 84
e 18 90
e 18 92
e 18 99
e 18 105
e 18 107
e 18 114
e 18 116
e 18 119
e 18 121
e 18 123
e 18 136
e 18 138
e 18 141
e 18 144
e 18 147
e 18 153
e 18 156
e 18 158
e 18 162
e 18 166
e 18 169
e 18 173
e 18 176
e 18 178
e 18 185
e 18 187
e 19 20
e 19 28
e 19 30
e 19 32
e 19 94
e 19 163
e 19 190
e 20 21
e 20 23
e 20 29
e 20 44
e 20 46
e 20 62
e 20 64
e 20 66
e 20 69
e 20 71
e 20 75
e 20 87
e 20 92
e 20 110
e 20 112
e 20 114
e 20 128
e 20 134
e 20 136
e 20 139
e 20 141
e 20 147
e 20 158
e 20 164
e 20 166
e 20 169
e 20 178
e 20 182
e 20 188
e 21 22
e 21 30
e 21 38
e 21 42
e 21 94
e 21 163
e 21 190
e 22 23
e 22 29
e 22 37
e 22 44
e 22 46
e 22 50
e 22 62
e 22 64
e 22 69
e 22 75
e 22 77
e 22 87
e 22 92
e 22 98
e 22 110
e 22 112
e 22 128
e 22 132
e 22 134
e 22 139
e 22 145
e 22 147
e 22 158
e 22 164
e 22 169
e 22 178
e 22 182
e 22 184
e 22 188
e 23 24
e 23 26
e 23 28
e 23 94
e 23 163
e 23 190
e 24 25
e 24 29
e 24 37
e 24 44
e 24 46
e 24 48
e 24 50
e 24 64
e 24 75
e 24 77
e 24 79
e 24 87
e 24 92
e 24 96
e 24 98
e 24 112
e 24 128
e 24 130
e 24 132
e 24 145
e 24 147
e 24 149
e 24 158
e 24 169
e 24 178
e 24 180
e 24 182
e 24 184
e 24 188
e 25 26
e 25 34
e 25 36
e 25 94
e 25 163
e 25 190
e 26 27
e 26 29
e 26 42
e 26 44
e 26 46
e 26 48
e 26 64
e 26 68
e 26 73
e 26 75
e 26 79
e 26 87
e 26 92
e 26 96
e 26 112
e 26 116
e 26 128
e 26 130
e 26 138
e 26 147
e 26 149
e 26 153
e 26 158
e 26 169
e 26 176
e 26 178
e 26 180
e 26 182
e 26 188
e 27 28
e 27 32
e 27 34
e 27 94
e 27 163
e 27 190
e 28 29
e 28 42
e 28 44
e 28 46
e 28 64
e 28 66
e 28 68
e 28 71
e 28 73
e 28 75
e 28 87
e 28 92
e 28 112
e 28 114
e 28 116
e 28 128
e 28 136
e 28 138
e 28 141
e 28 147
e 28 153
e 28 158
e 28 166
e 28 169
e 28 176
e 28 178
e 28 182
e 28 188
e 29 30
e 29 32
e 29 34
e 29 36
e 29 38
e 29 40
e 29 94
e 29 163
e 29 190
e 30 31
e 30 39
e 30 46
e 30 56
e 30 60
e 30 62
e 30 64
e 30 66
e 30 69
e 30 71
e 30 85
e 30 87
e 30 89
e 30 104
e 30 108
e 30 110
e 30 112
e 30 114
e 30 122
e 30 126
e 30 128
e 30 134
e 30 136
e 30 139
e 30 141
e 30 143
e 30 159
e 30 164
e 30 166
e 30 168
e 30 170
e 30 182
e 30 188
e 31 32
e 31 40
e 31 44
e 31 94
e 31 163
e 31 190
e 32 33
e 32 42
e 32 46
e 32 54
e 32 56
e 32 64
e 32 66
e 32 68
e 32 71
e 32 73
e 32 87
e 32 89
e 32 91
e 32 102
e 32 104
e 32 112
e 32 114
e 32 116
e 32 124
e 32 126
e 32 128
e 32 136
e 32 138
e 32 141
e 32 153
e 32 159
e 32 161
e 32 166
e 32 170
e 32 172
e 32 176
e 32 182
e 32 188
e 33 34
e 33 40
e 33 44
e 33 94
e 33 163
e 33 190
e 34 35
e 34 42
e 34 46
e 34 48
e 34 52
e 34 54
e 34 64
e 34 68
e 34 73
e 34 79
e 34 81
e 34 87
e 34 91
e 34 96
e 34 100
e 34 102
e 34 112
e 34 116
e 34 118
e 34 124
e 34 128
e 34 130
e 34 138
e 34 149
e 34 153
e 34 155
e 34 161
e 34 172
e 34 174
e 34 176
e 34 180
e 34 182
e 34 188
e 35 36
e 35 40
e 35 44
e 35 94
e 35 163
e 35 190
e 36 37
e 36 41
e 36 46
e 36 48
e 36 50
e 36 52
e 36 58
e 36 64
e 36 77
e 36 79
e 36 81
e 36 83
e 36 87
e 36 96
e 36 98
e 36 100
e 36 106
e 36 112
e 36 118
e 36 120
e 36 128
e 36 130
e 36 132
e 36 145
e 36 149
e 36 155
e 36 157
e 36 174
e 36 180
e 36 182
e 36 184
e 36 186
e 36 188
e 37 38
e 37 42
e 37 94
e 37 163
e 37 190
e 38 39
e 38 41
e 38 46
e 38 50
e 38 58
e 38 60
e 38 62
e 38 64
e 38 69
e 38 77
e 38 83
e 38 85
e 38 87
e 38 98
e 38 106
e 38 108
e 38 110
e 38 112
e 38 120
e 38 122
e 38 128
e 38 132
e 38 134
e 38 139
e 38 143
e 38 145
e 38 157
e 38 164
e 38 168
e 38 182
e 38 184
e 38 186
e 38 188
e 39 40
e 39 42
e 39 44
e 39 94
e 39 163
e 39 190
e 40 41
e 40 46
e 40 52
e 40 54
e 40 56
e 40 58
e 40 60
e 40 64
e 40 81
e 40 83
e 40 85
e 40 87
e 40 89
e 40 91
e 40 100
e 40 102
e 40 104
e 40 106
e 40 108
e 40 112
e 40 118
e 40 120
e 40 122
e 40 124
e 40 126
e 40 128
e 40 143
e 40 155
e 40 157
e 40 159
e 40 161
e 40 168
e 40 170
e 40 172
e 40 174
e 40 182
e 40 186
e 40 188
e 41 42
e 41 44
e 41 94
e 41 163
e 41 190
e 42 43
e 42 47
e 42 50
e 42 53
e 42 55
e 42 58
e 42 60
e 42 62
e 42 67
e 42 69
e 42 72
e 42 74
e 42 77
e 42 80
e 42 83
e 42 85
e 42 88
e 42 95
e 42 98
e 42 101
e 42 103
e 42 106
e 42 108
e 42 110
e 42 115
e 42 117
e 42 120
e 42 122
e 42 125
e 42 129
e 42 132
e 42 134
e 42 137
e 42 139
e 42 143
e 42 145
e 42 150
e 42 152
e 42 154
e 42 157
e 42 160
e 42 164
e 42 168
e 42 171
e 42 175
e 42 177
e 42 179
e 42 184
e 42 186
e 43 44
e 43 46
e 43 94
e 43 163
e 43 190
e 44 45
e 44 47
e 44 49
e 44 52
e 44 54
e 44 56
e 44 58
e 44 60
e 44 63
e 44 65
e 44 67
e 44 70
e 44 72
e 44 74
e 44 76
e 44 78
e 44 81
e 44 83
e 44 85
e 44 89
e 44 91
e 44 95
e 44 97
e 44 100
e 44 102
e 44 104
e 44 106
e 44 108
e 44 111
e 44 113
e 44 115
e 44 118
e 44 120
e 44 122
e 44 124
e 44 126
e 44 129
e 44 131
e 44 133
e 44 135
e 44 137
e 44 140
e 44 143
e 44 146
e 44 148
e 44 150
e 44 152
e 44 155
e 44 157
e 44 159
e 44 161
e 44 165
e 44 168
e 44 170
e 44 172
e 44 174
e 44 177
e 44 179
e 44 181
e 44 183
e 44 186
e 45 46
e 45 94
e 45 163
e 45 190
e 46 47
e 46 49
e 46 51
e 46 53
e 46 55
e 46 57
e 46 59
e 46 61
e 46 63
e 46 65
e 46 67
e 46 70
e 46 72
e 46 74
e 46 76
e 46 78
e 46 80
e 46 82
e 46 84
e 46 86
e 46 88
e 46 90
e 46 95
e 46 97
e 46 99
e 46 101
e 46 103
e 46 105
e 46 107
e 46 109
e 46 111
e 46 113
e 46 115
e 46 117
e 46 119
e 46 121
e 46 123
e 46 125
e 46 127
e 46 129
e 46 131
e 46 133
e 46 135
e 46 137
e 46 140
e 46 142
e 46 144
e 46 146
e 46 148
e 46 150
e 46 152
e 46 154
e 46 156
e 46 160
e 46 162
e 46 165
e 46 167
e 46 171
e 46 173
e 46 175
e 46 177
e 46 179
e 46 181
e 46 183
e 46 185
e 46 187
e 47 48
e 47 64
e 47 68
e 47 92
e 47 94
e 47 190
e 48 49
e 48 51
e 48 53
e 48 69
e 48 71
e 48 85
e 48 89
e 48 93
e 48 104
e 48 108
e 48 110
e 48 114
e 48 117
e 48 119
e 48 129
e 48 131
e 48 139
e 48 141
e 48 143
e 48 151
e 48 159
e 48 163
e 48 175
e 48 179
e 48 181
e 48 185
e 48 189
e 49 50
e 49 64
e 49 92
e 49 94
e 49 190
e 50 51
e 50 59
e 50 63
e 50 71
e 50 73
e 50 89
e 50 91
e 50 93
e 50 102
e 50 104
e 50 114
e 50 116
e 50 119
e 50 121
e 50 131
e 50 133
e 50 141
e 50 151
e 50 153
e 50 159
e 50 161
e 50 163
e 50 181
e 50 183
e 50 185
e 50 187
e 50 189
e 51 52
e 51 58
e 51 64
e 51 94
e 51 190
e 52 53
e 52 57
e 52 69
e 52 71
e 52 75
e 52 93
e 52 110
e 52 114
e 52 117
e 52 119
e 52 123
e 52 139
e 52 141
e 52 147
e 52 151
e 52 163
e 52 169
e 52 173
e 52 175
e 52 185
e 52 189
e 53 54
e 53 64
e 53 68
e 53 94
e 53 190
e 54 55
e 54 57
e 54 69
e 54 75
e 54 77
e 54 93
e 54 98
e 54 110
e 54 117
e 54 123
e 54 125
e 54 139
e 54 145
e 54 147
e 54 151
e 54 163
e 54 169
e 54 171
e 54 173
e 54 175
e 54 189
e 55 56
e 55 64
e 55 66
e 55 68
e 55 94
e 55 190
e 56 57
e 56 61
e 56 75
e 56 77
e 56 79
e 56 93
e 56 96
e 56 98
e 56 123
e 56 125
e 56 127
e 56 145
e 56 147
e 56 149
e 56 151
e 56 163
e 56 167
e 56 169
e 56 171
e 56 173
e 56 189
e 57 58
e 57 60
e 57 64
e 57 94
e 57 190
e 58 59
e 58 71
e 58 73
e 58 75
e 58 93
e 58 114
e 58 116
e 58 119
e 58 121
e 58 123
e 58 141
e 58 147
e 58 151
e 58 153
e 58 163
e 58 169
e 58 173
e 58 185
e 58 187
e 58 189
e 59 60
e 59 62
e 59 64
e 59 94
e 59 190
e 60 61
e 60 73
e 60 75
e 60 79
e 60 93
e 60 96
e 60 116
e 60 121
e 60 123
e 60 127
e 60 147
e 60 149
e 60 151
e 60 153
e 60 163
e 60 167
e 60 169
e 60 173
e 60 187
e 60 189
e 61 62
e 61 64
e 61 66
e 61 94
e 61 190
e 62 63
e 62 65
e 62 73
e 62 79
e 62 81
e 62 91
e 62 93
e 62 96
e 62 100
e 62 102
e 62 116
e 62 121
e 62 127
e 62 133
e 62 135
e 62 149
e 62 151
e 62 153
e 62 155
e 62 161
e 62 163
e 62 165
e 62 167
e 62 183
e 62 187
e 62 189
e 63 64
e 63 92
e 63 94
e 63 190
e 64 65
e 64 67
e 64 93
e 64 117
e 64 119
e 64 121
e 64 123
e 64 125
e 64 127
e 64 129
e 64 131
e 64 133
e 64 135
e 64 137
e 64 151
e 64 163
e 64 165
e 64 167
e 64 171
e 64 173
e 64 175
e 64 177
e 64 179
e 64 181
e 64 183
e 64 185
e 64 187
e 64 189
e 65 66
e 65 92
e 65 94
e 65 190
e 66 67
e 66 77
e 66 79
e 66 81
e 66 83
e 66 93
e 66 96
e 66 98
e 66 100
e 66 106
e 66 125
e 66 127
e 66 135
e 66 137
e 66 145
e 66 149
e 66 151
e 66 155
e 66 157
e 66 163
e 66 165
e 66 167
e 66 171
e 66 177
e 66 189
e 67 68
e 67 92
e 67 94
e 67 190
e 68 69
e 68 77
e 68 83
e 68 85
e 68 93
e 68 98
e 68 106
e 68 108
e 68 110
e 68 117
e 68 125
e 68 129
e 68 137
e 68 139
e 68 143
e 68 145
e 68 151
e 68 157
e 68 163
e 68 171
e 68 175
e 68 177
e 68 179
e 68 189
e 69 70
e 69 76
e 69 84
e 69 86
e 69 94
e 69 190
e 70 71
e 70 75
e 70 87
e 70 93
e 70 110
e 70 112
e 70 114
e 70 139
e 70 141
e 70 147
e 70 151
e 70 163
e 70 169
e 70 182
e 70 189
e 71 72
e 71 86
e 71 88
e 71 94
e 71 190
e 72 73
e 72 75
e 72 87
e 72 93
e 72 112
e 72 114
e 72 116
e 72 141
e 72 147
e 72 151
e 72 153
e 72 163
e 72 169
e 72 182
e 72 189
e 73 74
e 73 80
e 73 88
e 73 94
e 73 190
e 74 75
e 74 79
e 74 87
e 74 93
e 74 96
e 74 112
e 74 116
e 74 147
e 74 149
e 74 151
e 74 153
e 74 163
e 74 169
e 74 182
e 74 189
e 75 76
e 75 78
e 75 94
e 75 190
e 76 77
e 76 87
e 76 93
e 76 98
e 76 110
e 76 112
e 76 139
e 76 145
e 76 147
e 76 151
e 76 163
e 76 169
e 76 182
e 76 189
e 77 78
e 77 82
e 77 84
e 77 94
e 77 190
e 78 79
e 78 87
e 78 93
e 78 96
e 78 98
e 78 112
e 78 145
e 78 147
e 78 149
e 78 151
e 78 163
e 78 169
e 78 182
e 78 189
e 79 80
e 79 82
e 79 94
e 79 190
e 80 81
e 80 87
e 80 91
e 80 93
e 80 96
e 80 100
e 80 102
e 80 112
e 80 116
e 80 149
e 80 151
e 80 153
e 80 155
e 80 161
e 80 163
e 80 182
e 80 189
e 81 82
e 81 90
e 81 92
e 81 94
e 81 190
e 82 83
e 82 87
e 82 93
e 82 96
e 82 98
e 82 100
e 82 106
e 82 112
e 82 145
e 82 149
e 82 151
e 82 155
e 82 157
e 82 163
e 82 182
e 82 189
e 83 84
e 83 90
e 83 92
e 83 94
e 83 190
e 84 85
e 84 87
e 84 93
e 84 98
e 84 106
e 84 108
e 84 110
e 84 112
e 84 139
e 84 143
e 84 145
e 84 151
e 84 157
e 84 163
e 84 182
e 84 189
e 85 86
e 85 90
e 85 92
e 85 94
e 85 190
e 86 87
e 86 89
e 86 93
e 86 104
e 86 108
e 86 110
e 86 112
e 86 114
e 86 139
e 86 141
e 86 143
e 86 151
e 86 159
e 86 163
e 86 182
e 86 189
e 87 88
e 87 90
e 87 94
e 87 190
e 88 89
e 88 91
e 88 93
e 88 102
e 88 104
e 88 112
e 88 114
e 88 116
e 88 141
e 88 151
e 88 153
e 88 159
e 88 161
e 88 163
e 88 182
e 88 189
e 89 90
e 89 92
e 89 94
e 89 190
e 90 91
e 90 93
e 90 100
e 90 102
e 90 104
e 90 106
e 90 108
e 90 112
e 90 143
e 90 151
e 90 155
e 90 157
e 90 159
e 90 161
e 90 163
e 90 182
e 90 189
e 91 92
e 91 94
e 91 190
e 92 93
e 92 100
e 92 102
e 92 104
e 92 106
e 92 108
e 92 129
e 92 131
e 92 133
e 92 135
e 92 137
e 92 143
e 92 151
e 92 155
e 92 157
e 92 159
e 92 161
e 92 163
e 92 165
e 92 177
e 92 179
e 92 181
e 92 183
e 92 189
e 93 94
e 93 190
e 94 95
e 94 97
e 94 99
e 94 101
e 94 103
e 94 105
e 94 107
e 94 109
e 94 111
e 94 113
e 94 115
e 94 117
e 94 119
e 94 121
e 94 123
e 94 125
e 94 127
e 94 129
e 94 131
e 94 133
e 94 135
e 94 137
e 94 139
e 94 141
e 94 143
e 94 145
e 94 147
e 94 149
e 94 151
e 94 153
e 94 155
e 94 157
e 94 159
e 94 161
e 94 164
e 94 166
e 94 168
e 94 170
e 94 172
e 94 174
e 94 176
e 94 178
e 94 180
e 94 182
e 94 184
e 94 186
e 94 188
e 95 96
e 95 112
e 95 116
e 95 163
e 95 169
e 95 189
e 95 191
e 96 97
e 96 99
e 96 101
e 96 117
e 96 119
e 96 129
e 96 131
e 96 139
e 96 141
e 96 143
e 96 159
e 96 164
e 96 166
e 96 168
e 96 170
e 96 190
e 97 98
e 97 112
e 97 163
e 97 169
e 97 189
e 97 191
e 98 99
e 98 107
e 98 111
e 98 119
e 98 121
e 98 131
e 98 133
e 98 141
e 98 153
e 98 159
e 98 161
e 98 166
e 98 170
e 98 172
e 98 176
e 98 190
e 99 100
e 99 106
e 99 112
e 99 163
e 99 189
e 99 191
e 100 101
e 100 105
e 100 117
e 100 119
e 100 123
e 100 139
e 100 141
e 100 147
e 100 164
e 100 166
e 100 178
e 100 190
e 101 102
e 101 112
e 101 116
e 101 163
e 101 189
e 101 191
e 102 103
e 102 105
e 102 117
e 102 123
e 102 125
e 102 139
e 102 145
e 102 147
e 102 164
e 102 178
e 102 184
e 102 190
e 103 104
e 103 112
e 103 114
e 103 116
e 103 163
e 103 189
e 103 191
e 104 105
e 104 109
e 104 123
e 104 125
e 104 127
e 104 145
e 104 147
e 104 149
e 104 178
e 104 180
e 104 184
e 104 190
e 105 106
e 105 108
e 105 112
e 105 163
e 105 189
e 105 191
e 106 107
e 106 119
e 106 121
e 106 123
e 106 141
e 106 147
e 106 153
e 106 166
e 106 176
e 106 178
e 106 190
e 107 108
e 107 110
e 107 112
e 107 163
e 107 189
e 107 191
e 108 109
e 108 121
e 108 123
e 108 127
e 108 147
e 108 149
e 108 153
e 108 176
e 108 178
e 108 180
e 108 190
e 109 110
e 109 112
e 109 114
e 109 163
e 109 189
e 109 191
e 110 111
e 110 113
e 110 121
e 110 127
e 110 133
e 110 135
e 110 149
e 110 153
e 110 155
e 110 161
e 110 172
e 110 174
e 110 176
e 110 180
e 110 190
e 111 112
e 111 163
e 111 169
e 111 189
e 111 191
e 112 113
e 112 115
e 112 117
e 112 119
e 112 121
e 112 123
e 112 125
e 112 127
e 112 129
e 112 131
e 112 133
e 112 135
e 112 137
e 112 190
e 113 114
e 113 163
e 113 169
e 113 189
e 113 191
e 114 115
e 114 125
e 114 127
e 114 135
e 114 137
e 114 145
e 114 149
e 114 155
e 114 157
e 114 174
e 114 180
e 114 184
e 114 186
e 114 190
e 115 116
e 115 163
e 115 169
e 115 189
e 115 191
e 116 117
e 116 125
e 116 129
e 116 137
e 116 139
e 116 143
e 116 145
e 116 157
e 116 164
e 116 168
e 116 184
e 116 186
e 116 190
e 117 118
e 117 124
e 117 128
e 117 130
e 117 138
e 117 191
e 118 119
e 118 123
e 118 139
e 118 141
e 118 147
e 118 151
e 118 163
e 118 190
e 119 120
e 119 128
e 119 130
e 119 132
e 119 191
e 120 121
e 120 123
e 120 141
e 120 147
e 120 151
e 120 153
e 120 163
e 120 190
e 121 122
e 121 128
e 121 132
e 121 134
e 121 191
e 122 123
e 122 127
e 122 147
e 122 149
e 122 151
e 122 153
e 122 163
e 122 190
e 123 124
e 123 126
e 123 128
e 123 191
e 124 125
e 124 139
e 124 145
e 124 147
e 124 151
e 124 163
e 124 190
e 125 126
e 125 128
e 125 136
e 125 138
e 125 191
e 126 127
e 126 145
e 126 147
e 126 149
e 126 151
e 126 163
e 126 190
e 127 128
e 127 134
e 127 136
e 127 191
e 128 129
e 128 131
e 128 133
e 128 135
e 128 137
e 128 151
e 128 163
e 128 190
e 129 130
e 129 138
e 129 158
e 129 169
e 129 191
e 130 131
e 130 139
e 130 141
e 130 143
e 130 151
e 130 159
e 130 163
e 130 190
e 131 132
e 131 158
e 131 169
e 131 191
e 132 133
e 132 141
e 132 151
e 132 153
e 132 159
e 132 161
e 132 163
e 132 190
e 133 134
e 133 158
e 133 169
e 133 191
e 134 135
e 134 149
e 134 151
e 134 153
e 134 155
e 134 161
e 134 163
e 134 190
e 135 136
e 135 158
e 135 169
e 135 191
e 136 137
e 136 145
e 136 149
e 136 151
e 136 155
e 136 157
e 136 163
e 136 190
e 137 138
e 137 158
e 137 169
e 137 191
e 138 139
e 138 143
e 138 145
e 138 151
e 138 157
e 138 163
e 138 190
e 139 140
e 139 142
e 139 144
e 139 146
e 139 165
e 139 167
e 139 183
e 139 187
e 139 191
e 140 141
e 140 147
e 140 151
e 140 163
e 140 182
e 140 190
e 141 142
e 141 152
e 141 160
e 141 165
e 141 167
e 141 171
e 141 177
e 141 191
e 142 143
e 142 151
e 142 159
e 142 163
e 142 182
e 142 190
e 143 144
e 143 158
e 143 162
e 143 167
e 143 169
e 143 173
e 143 187
e 143 191
e 144 145
e 144 151
e 144 157
e 144 163
e 144 182
e 144 190
e 145 146
e 145 148
e 145 156
e 145 181
e 145 183
e 145 185
e 145 187
e 145 191
e 146 147
e 146 151
e 146 163
e 146 182
e 146 190
e 147 148
e 147 150
e 147 152
e 147 165
e 147 177
e 147 179
e 147 181
e 147 183
e 147 191
e 148 149
e 148 151
e 148 163
e 148 182
e 148 190
e 149 150
e 149 154
e 149 156
e 149 175
e 149 179
e 149 181
e 149 185
e 149 191
e 150 151
e 150 153
e 150 163
e 150 182
e 150 190
e 151 152
e 151 154
e 151 156
e 151 158
e 151 160
e 151 162
e 151 191
e 152 153
e 152 163
e 152 182
e 152 190
e 153 154
e 153 160
e 153 171
e 153 175
e 153 177
e 153 179
e 153 191
e 154 155
e 154 161
e 154 163
e 154 182
e 154 190
e 155 156
e 155 158
e 155 162
e 155 169
e 155 173
e 155 175
e 155 185
e 155 191
e 156 157
e 156 163
e 156 182
e 156 190
e 157 158
e 157 162
e 157 169
e 157 173
e 157 185
e 157 187
e 157 191
e 158 159
e 158 161
e 158 163
e 158 190
e 159 160
e 159 162
e 159 167
e 159 169
e 159 171
e 159 173
e 159 191
e 160 161
e 160 163
e 160 182
e 160 190
e 161 162
e 161 169
e 161 171
e 161 173
e 161 175
e 161 191
e 162 163
e 162 182
e 162 190
e 163 164
e 163 166
e 163 168
e 163 170
e 163 172
e 163 174
e 163 176
e 163 178
e 163 180
e 163 184
e 163 186
e 163 188
e 164 165
e 164 167
e 164 183
e 164 187
e 164 189
e 164 191
e 165 166
e 165 178
e 165 182
e 165 188
e 165 190
e 166 167
e 166 171
e 166 177
e 166 189
e 166 191
e 167 168
e 167 170
e 167 182
e 167 188
e 167 190
e 168 169
e 168 173
e 168 187
e 168 189
e 168 191
e 169 170
e 169 172
e 169 174
e 169 186
e 169 190
e 170 171
e 170 173
e 170 189
e 170 191
e 171 172
e 171 176
e 171 182
e 171 188
e 171 190
e 172 173
e 172 175
e 172 189
e 172 191
e 173 174
e 173 182
e 173 186
e 173 188
e 173 190
e 174 175
e 174 185
e 174 189
e 174 191
e 175 176
e 175 180
e 175 182
e 175 188
e 175 190
e 176 177
e 176 179
e 176 189
e 176 191
e 177 178
e 177 182
e 177 188
e 177 190
e 178 179
e 178 181
e 178 183
e 178 189
e 178 191
e 179 180
e 179 182
e 179 188
e 179 190
e 180 181
e 180 185
e 180 189
e 180 191
e 181 182
e 181 184
e 181 188
e 181 190
e 182 183
e 182 185
e 182 187
e 182 191
e 183 184
e 183 188
e 183 190
e 184 185
e 184 187
e 184 189
e 184 191
e 185 186
e 185 188
e 185 190
e 186 187
e 186 189
e 186 191
e 187 188
e 187 190
e 188 189
e 188 191
e 189 190
e 190 191
